c 1 SQLITE_OMIT_LOAD_EXTENSION
c 2 SQLITE_ENABLE_UPDATE_DELETE_LIMIT
c 3 SQLITE_HAS_CODEC
c 4 SQLITE_ENABLE_SQLLOG
c 5 SQLITE_ENABLE_CEROD
c 6 SQLITE_OS_UNIX
p cnf 5 5
// -DSQLITE_OMIT_LOAD_EXTENSION
1 0
// custom limitations
-2 0
-3 0
-4 0
-5 0
// focus on UNIX os
6 0
